sat
(
  (define-fun L () String
    "")
  (define-fun H () String
    "")
  (define-fun K () String
    "a")
  (define-fun X () String
    "aaababbaaababbaaababbbbbaa")
  (define-fun S () String
    "")
  (define-fun J () String
    "")
  (define-fun G () String
    "aaa")
  (define-fun U () String
    "")
  (define-fun M () String
    "")
  (define-fun V () String
    "")
  (define-fun Z () String
    "")
  (define-fun R () String
    "aaababb")
)
